c description: Random 3-CNF over 19 variables and 81 clauses
c generator: CNFgen (0.9.2)
c copyright: (C) 2012-2022 Massimo Lauria <massimo.lauria@uniroma1.it>
c url: https://massimolauria.net/cnfgen
c command line: cnfgen --output CNF_4.28/19_bit_81_378.cnf randkcnf 3 19 81
c
p cnf 19 81
2 4 16 0
1 -4 -19 0
-3 -5 17 0
-6 11 18 0
-9 -10 18 0
-5 -8 -14 0
6 10 16 0
-5 -9 -12 0
2 14 17 0
-3 5 9 0
-1 2 -7 0
1 -2 8 0
-4 -17 -19 0
-8 -9 12 0
-2 -13 -19 0
-8 -9 -14 0
15 -16 -17 0
10 -17 18 0
-1 2 18 0
-2 -3 5 0
-10 11 -12 0
10 -13 -15 0
1 3 -17 0
-3 6 12 0
-1 -6 14 0
-1 5 -15 0
11 -15 19 0
-4 11 17 0
1 4 -10 0
-9 13 18 0
1 4 -14 0
-1 4 19 0
-6 -9 -18 0
-9 -10 11 0
1 9 -11 0
-4 -9 15 0
9 -13 -17 0
1 15 -17 0
-12 13 19 0
8 -13 17 0
9 -11 16 0
8 -14 -17 0
1 -3 -18 0
4 -11 -15 0
3 6 12 0
10 -12 16 0
6 -17 -19 0
2 6 -16 0
9 11 -18 0
-5 -6 7 0
13 18 19 0
-7 13 -16 0
4 -6 -9 0
-1 -2 -14 0
-6 9 16 0
1 -6 19 0
7 14 -18 0
-1 13 19 0
-12 13 -14 0
8 12 19 0
2 -9 -16 0
-2 -12 -18 0
-5 -11 12 0
7 -13 -18 0
-3 14 18 0
1 6 17 0
10 -12 -19 0
13 -15 -17 0
-7 -12 17 0
9 14 15 0
-4 -9 12 0
12 13 -17 0
-1 13 -16 0
7 9 19 0
-4 -10 16 0
-1 9 -16 0
5 -6 18 0
10 18 -19 0
3 5 -16 0
5 -7 -15 0
-2 -15 16 0
